n = 28;
k = 3;
roles = [
{m, g},
{d, f},
{g, d},
{d, m},
{m, f},
{m, f},
{m, d},
{d, m},
{f, m},
{g, d},
{g, m},
{f, d},
{g, m},
{m, f},
{g, f},
{g, d},
{m, f},
{d, m},
{g, m},
{g, m},
{g, m},
{g, f},
{d, g},
{d, f},
{g, m},
{f, g},
{d, m},
{g, m}
];
num_pairs = 3;
player1 = [28, 9, 24];
player2 = [6, 25, 12];
